c 
c G(k,n,p) graph
c graph gen seed     : 47736
c number of vertices : 50
c max number of edges: 625
c number of classes  : 2
c edge density       : 0.300000
c edge probability   : 0.600000
c data structure     : dense
c
c           Graph Stats
c number of vertices  : 50
c nonisolated vertices: 50
c number of edges     : 345
c edge density        : 0.281633
c max degree          : 21
c avg degree          : 13.80
c min degree          : 10
p col 50 345
e 1 3
e 1 7
e 1 12
e 1 18
e 1 22
e 1 23
e 1 24
e 1 27
e 1 29
e 1 32
e 1 35
e 1 48
e 1 50
e 2 6
e 2 8
e 2 12
e 2 18
e 2 26
e 2 32
e 2 35
e 2 36
e 2 38
e 2 48
e 3 13
e 3 15
e 3 16
e 3 17
e 3 30
e 3 33
e 3 34
e 3 39
e 3 42
e 3 46
e 4 6
e 4 18
e 4 22
e 4 23
e 4 26
e 4 29
e 4 32
e 4 36
e 4 38
e 4 41
e 4 48
e 4 50
e 5 12
e 5 18
e 5 25
e 5 27
e 5 29
e 5 35
e 5 36
e 5 37
e 5 38
e 5 41
e 5 50
e 6 10
e 6 11
e 6 13
e 6 15
e 6 17
e 6 21
e 6 30
e 6 31
e 6 34
e 6 39
e 6 40
e 6 44
e 6 45
e 6 46
e 6 47
e 6 49
e 7 11
e 7 13
e 7 15
e 7 16
e 7 19
e 7 20
e 7 30
e 7 31
e 7 34
e 7 39
e 7 42
e 7 44
e 7 49
e 8 9
e 8 14
e 8 15
e 8 16
e 8 19
e 8 20
e 8 21
e 8 30
e 8 31
e 8 39
e 8 45
e 8 46
e 9 12
e 9 18
e 9 22
e 9 23
e 9 24
e 9 25
e 9 26
e 9 28
e 9 32
e 9 35
e 9 36
e 9 37
e 9 43
e 9 48
e 10 24
e 10 25
e 10 26
e 10 27
e 10 29
e 10 35
e 10 36
e 10 38
e 10 41
e 11 12
e 11 18
e 11 23
e 11 25
e 11 27
e 11 29
e 11 35
e 11 48
e 11 50
e 12 14
e 12 15
e 12 16
e 12 17
e 12 20
e 12 21
e 12 30
e 12 31
e 12 33
e 12 34
e 12 39
e 12 40
e 12 42
e 12 45
e 12 46
e 12 47
e 13 18
e 13 22
e 13 25
e 13 27
e 13 28
e 13 29
e 13 32
e 13 35
e 13 36
e 13 37
e 13 38
e 13 43
e 13 48
e 13 50
e 14 24
e 14 25
e 14 26
e 14 27
e 14 28
e 14 29
e 14 35
e 14 36
e 14 37
e 14 38
e 14 41
e 14 43
e 14 48
e 14 50
e 15 23
e 15 26
e 15 27
e 15 28
e 15 32
e 15 37
e 15 43
e 16 25
e 16 27
e 16 28
e 16 29
e 16 32
e 16 36
e 16 43
e 16 48
e 16 50
e 17 23
e 17 27
e 17 35
e 17 36
e 17 37
e 17 38
e 17 41
e 17 50
e 18 19
e 18 20
e 18 21
e 18 31
e 18 33
e 18 34
e 18 39
e 18 40
e 18 45
e 18 49
e 19 22
e 19 23
e 19 24
e 19 27
e 19 29
e 19 32
e 19 35
e 19 36
e 19 43
e 19 50
e 20 24
e 20 25
e 20 26
e 20 29
e 20 32
e 20 35
e 20 36
e 20 37
e 20 41
e 21 22
e 21 23
e 21 24
e 21 25
e 21 29
e 21 32
e 21 35
e 21 38
e 21 50
e 22 33
e 22 39
e 22 40
e 22 44
e 22 45
e 22 47
e 23 34
e 23 40
e 23 45
e 23 46
e 23 47
e 23 49
e 24 30
e 24 33
e 24 40
e 24 42
e 24 44
e 24 47
e 25 30
e 25 33
e 25 34
e 25 42
e 25 44
e 25 45
e 25 49
e 26 30
e 26 42
e 26 45
e 26 46
e 27 31
e 27 34
e 27 39
e 27 42
e 27 45
e 27 49
e 28 30
e 28 33
e 28 42
e 28 44
e 28 45
e 28 46
e 28 47
e 28 49
e 29 30
e 29 31
e 29 33
e 29 42
e 29 44
e 29 45
e 29 47
e 29 49
e 30 36
e 30 38
e 30 41
e 30 43
e 30 48
e 30 50
e 31 32
e 31 37
e 31 38
e 31 41
e 31 48
e 31 50
e 32 33
e 32 40
e 32 45
e 32 49
e 33 35
e 33 37
e 33 43
e 33 50
e 34 37
e 34 41
e 34 43
e 35 40
e 35 42
e 35 44
e 35 45
e 35 46
e 35 47
e 36 46
e 36 47
e 37 39
e 37 40
e 37 44
e 37 45
e 37 46
e 37 47
e 37 49
e 38 39
e 38 40
e 38 45
e 38 47
e 39 41
e 39 48
e 39 50
e 40 41
e 40 43
e 40 48
e 41 42
e 41 46
e 42 43
e 42 48
e 42 50
e 43 47
e 43 49
e 44 48
e 44 50
e 48 49
e 49 50
